Gurobi Optimizer version 9.1.0 build v9.1.0rc0 (linux64)
Thread count: 8 physical cores, 16 logical processors, using up to 16 threads
Optimize a model with 156424 rows, 151200 columns and 877950 nonzeros
Model fingerprint: 0x1d82f465
Variable types: 0 continuous, 151200 integer (151200 binary)
Coefficient statistics:
  Matrix range     [1e+00, 1e+00]
  Objective range  [1e+01, 3e+04]
  Bounds range     [1e+00, 1e+00]
  RHS range        [1e+00, 2e+02]
Presolve added 0 rows and 2450 columns
Presolve removed 50 rows and 0 columns
Presolve time: 3.75s
Presolved: 156374 rows, 153650 columns, 635350 nonzeros
Variable types: 0 continuous, 153650 integer (153650 binary)
Found heuristic solution: objective 292362.00000

Concurrent LP optimizer: primal simplex, dual simplex, and barrier
Showing barrier log only...

Root barrier log...

Ordering time: 0.61s

Barrier statistics:
 Dense cols : 600
 AA' NZ     : 4.894e+05
 Factor NZ  : 2.609e+06 (roughly 150 MBytes of memory)
 Factor Ops : 1.141e+09 (less than 1 second per iteration)
 Threads    : 6

                  Objective                Residual
Iter       Primal          Dual         Primal    Dual     Compl     Time
   0   1.17579923e+08 -1.79388758e+08  3.25e+02 3.15e+01  8.99e+03     7s
   1   8.52989989e+05 -1.72511203e+08  1.60e+00 1.65e+03  4.14e+02     7s
   2   4.05057068e+05 -7.08897103e+07  2.96e-01 6.43e+02  1.59e+02     8s
   3   3.58819514e+05 -2.81915429e+07  1.55e-01 2.44e+02  6.30e+01     8s
   4   3.06586987e+05 -3.97762690e+05  4.15e-03 1.59e+01  1.53e+00     8s
   5   2.92929940e+05 -5.36173436e+04  2.86e-03 6.42e+00  7.51e-01     9s
   6   2.78274457e+05  4.69116215e+04  1.99e-03 4.16e+00  5.02e-01     9s
   7   2.65960599e+05  1.22830097e+05  1.49e-03 2.21e+00  3.10e-01     9s
   8   2.58621408e+05  1.55777732e+05  1.23e-03 1.45e+00  2.23e-01     9s
   9   2.52446259e+05  1.69629543e+05  1.02e-03 1.12e+00  1.79e-01    10s
  10   2.46684028e+05  1.94407570e+05  8.45e-04 5.25e-01  1.13e-01    10s
  11   2.40565078e+05  2.00142655e+05  6.71e-04 3.62e-01  8.74e-02    11s
  12   2.33249451e+05  2.05509824e+05  4.61e-04 2.37e-01  6.00e-02    11s
  13   2.30262024e+05  2.09813615e+05  3.73e-04 1.46e-01  4.42e-02    12s
  14   2.26536628e+05  2.11826244e+05  2.73e-04 1.03e-01  3.18e-02    12s
  15   2.25353117e+05  2.13354594e+05  2.41e-04 7.16e-02  2.59e-02    12s
  16   2.23642422e+05  2.14234068e+05  1.97e-04 5.27e-02  2.03e-02    13s
  17   2.22264331e+05  2.14845113e+05  1.57e-04 3.98e-02  1.60e-02    13s
  18   2.20984504e+05  2.15263771e+05  1.23e-04 3.11e-02  1.24e-02    14s
  19   2.20249180e+05  2.15673258e+05  1.02e-04 2.28e-02  9.89e-03    14s
  20   2.19609765e+05  2.15918796e+05  8.28e-05 1.79e-02  7.97e-03    14s
  21   2.19059984e+05  2.16111906e+05  6.63e-05 1.40e-02  6.37e-03    15s
  22   2.18412870e+05  2.16246827e+05  4.86e-05 1.14e-02  4.68e-03    15s
  23   2.18191148e+05  2.16407574e+05  4.15e-05 8.40e-03  3.85e-03    15s
  24   2.17923278e+05  2.16472898e+05  3.32e-05 7.11e-03  3.13e-03    16s
  25   2.17802634e+05  2.16580537e+05  3.01e-05 5.13e-03  2.64e-03    16s
  26   2.17661306e+05  2.16632812e+05  2.59e-05 4.08e-03  2.22e-03    16s
  27   2.17566149e+05  2.16705227e+05  2.28e-05 2.73e-03  1.86e-03    17s
  28   2.17313088e+05  2.16735874e+05  1.54e-05 2.13e-03  1.25e-03    17s
  29   2.17279675e+05  2.16751212e+05  1.44e-05 1.86e-03  1.14e-03    17s
  30   2.17200669e+05  2.16771930e+05  1.17e-05 1.46e-03  9.25e-04    18s
  31   2.17133113e+05  2.16783316e+05  9.43e-06 1.27e-03  7.55e-04    18s
  32   2.17074579e+05  2.16799178e+05  7.46e-06 9.69e-04  5.94e-04    18s
  33   2.17015195e+05  2.16811640e+05  5.55e-06 7.35e-04  4.39e-04    19s
  34   2.16969846e+05  2.16818833e+05  4.05e-06 6.04e-04  3.26e-04    19s
  35   2.16945977e+05  2.16828282e+05  3.21e-06 4.25e-04  2.54e-04    19s
  36   2.16920801e+05  2.16834702e+05  2.32e-06 3.11e-04  1.86e-04    20s
  37   2.16903982e+05  2.16838678e+05  1.73e-06 2.44e-04  1.41e-04    20s
  38   2.16886739e+05  2.16843367e+05  1.13e-06 1.60e-04  9.36e-05    20s
  39   2.16879495e+05  2.16846090e+05  8.82e-07 1.19e-04  7.21e-05    21s
  40   2.16872171e+05  2.16848350e+05  6.31e-07 8.37e-05  5.14e-05    21s
  41   2.16866018e+05  2.16849678e+05  4.16e-07 6.24e-05  3.53e-05    21s
  42   2.16861306e+05  2.16850339e+05  2.57e-07 5.20e-05  2.37e-05    22s
  43   2.16860291e+05  2.16851469e+05  2.22e-07 3.54e-05  1.90e-05    22s
  44   2.16859691e+05  2.16851905e+05  2.01e-07 2.90e-05  1.68e-05    22s
  45   2.16857601e+05  2.16852363e+05  1.29e-07 2.19e-05  1.13e-05    22s
  46   2.16856419e+05  2.16852723e+05  8.70e-08 1.64e-05  7.98e-06    23s
  47   2.16855595e+05  2.16853317e+05  5.89e-08 7.70e-06  4.92e-06    23s
  48   2.16854873e+05  2.16853673e+05  3.38e-08 2.49e-06  2.59e-06    23s
  49   2.16854596e+05  2.16853766e+05  2.49e-08 1.17e-06  1.79e-06    23s
  50   2.16854502e+05  2.16853792e+05  2.16e-08 8.28e-07  1.53e-06    24s
  51   2.16854342e+05  2.16853833e+05  1.60e-08 3.93e-07  1.10e-06    24s
  52   2.16854196e+05  2.16853861e+05  1.10e-08 6.28e-08  7.22e-07    24s
  53   2.16854117e+05  2.16853862e+05  8.32e-09 3.26e-08  5.50e-07    24s
  54   2.16854067e+05  2.16853866e+05  6.60e-09 2.82e-08  4.33e-07    24s
  55   2.16853981e+05  2.16853869e+05  4.04e-09 1.62e-08  2.41e-07    24s
  56   2.16853879e+05  2.16853868e+05  6.39e-10 7.21e-08  2.32e-08    25s
  57   2.16853879e+05  2.16853869e+05  1.80e-08 6.77e-08  2.22e-08    25s
  58   2.16853879e+05  2.16853869e+05  1.79e-08 6.74e-08  2.21e-08    25s
  59   2.16853879e+05  2.16853869e+05  1.79e-08 6.68e-08  2.20e-08    25s

Barrier solved model in 59 iterations and 25.33 seconds
Optimal objective 2.16853879e+05


Root crossover log...

   96335 variables added to crossover basis                       30s

   58640 DPushes remaining with DInf 2.5098492e-04                34s
     677 DPushes remaining with DInf 0.0000000e+00                39s
      36 DPushes remaining with DInf 0.0000000e+00                40s
       0 DPushes remaining with DInf 0.0000000e+00                40s

    1029 PPushes remaining with PInf 7.4622899e-06                40s
       0 PPushes remaining with PInf 0.0000000e+00                40s

  Push phase complete: Pinf 0.0000000e+00, Dinf 5.0178232e-03     40s


Root simplex log...

Iteration    Objective       Primal Inf.    Dual Inf.      Time
   10801    2.1685387e+05   0.000000e+00   5.017799e-03     40s
   10802    2.1685387e+05   0.000000e+00   0.000000e+00     41s
   10802    2.1685387e+05   0.000000e+00   0.000000e+00     41s

Solved with barrier

Root relaxation: objective 2.168539e+05, 10802 iterations, 35.60 seconds

    Nodes    |    Current Node    |     Objective Bounds      |     Work
 Expl Unexpl |  Obj  Depth IntInf | Incumbent    BestBd   Gap | It/Node Time

     0     0 216853.871    0 14621 292362.000 216853.871  25.8%     -   43s
H    0     0                    229143.00000 216853.871  5.36%     -   44s
H    0     0                    229109.00000 216853.871  5.35%     -   45s
H    0     0                    228990.00000 216853.871  5.30%     -   45s
     0     0 216855.267    0 14623 228990.000 216855.267  5.30%     -   62s
H    0     0                    228977.00000 216855.267  5.29%     -   96s
     0     0 216856.693    0 14600 228977.000 216856.693  5.29%     -  111s
H    0     0                    228975.00000 216856.693  5.29%     -  111s
H    0     0                    228934.00000 216856.693  5.28%     -  113s
     0     0 216858.598    0 14615 228934.000 216858.598  5.27%     -  141s
     0     0 216858.738    0 14616 228934.000 216858.738  5.27%     -  147s
     0     0 216858.751    0 14621 228934.000 216858.751  5.27%     -  150s
     0     0 216860.663    0 14619 228934.000 216860.663  5.27%     -  188s
H    0     0                    228896.00000 216860.663  5.26%     -  191s
     0     0 216860.887    0 14615 228896.000 216860.887  5.26%     -  195s
     0     0 216860.892    0 14623 228896.000 216860.892  5.26%     -  196s
     0     0 216861.962    0 15004 228896.000 216861.962  5.26%     -  234s
     0     0 216862.193    0 14852 228896.000 216862.193  5.26%     -  238s
     0     0 216862.222    0 15008 228896.000 216862.222  5.26%     -  240s
     0     0 216862.223    0 15009 228896.000 216862.223  5.26%     -  244s
H    0     0                    228851.00000 216862.223  5.24%     -  246s
     0     0 216862.227    0 15006 228851.000 216862.227  5.24%     -  247s
     0     0 216862.227    0 15006 228851.000 216862.227  5.24%     -  251s
     0     0 216862.234    0 14847 228851.000 216862.234  5.24%     -  253s
     0     0 216862.235    0 15002 228851.000 216862.235  5.24%     -  258s

Cutting planes:
  Gomory: 2
  Zero half: 54

Explored 1 nodes (18771 simplex iterations) in 301.57 seconds
Thread count was 16 (of 16 available processors)

Solution count 9: 228851 228896 228934 ... 292362

Time limit reached
Best objective 2.288510000000e+05, best bound 2.168630000000e+05, gap 5.2383%

User-callback calls 20760, time in user-callback 0.37 sec
['/opt/local/stow/gurobi910/linux64/lib/libgurobi91.so']
Result: runtime=258.10sec; objective=228851
Solution written to /autofs/unityaccount/cremi/mdeboute/Bureau/multi-period-flp/solution/instSingle_I50_J250_T12_1_result.txt
